p cnf 200 1110
-101 46 0
-101 52 0
-101 -3 0
-101 -16 0
-101 14 0
-101 -61 0
-101 -66 0
-101 -54 0
-101 -10 0
-101 -59 0
101 -46 -52 3 16 -14 61 66 54 10 59 0
-102 87 0
-102 -70 0
-102 76 0
-102 -42 0
-102 -38 0
-102 1 0
-102 -47 0
-102 52 0
-102 -51 0
-102 16 0
102 -87 70 -76 42 38 -1 47 -52 51 -16 0
-103 -49 0
-103 -34 0
-103 -84 0
-103 74 0
-103 25 0
-103 -100 0
-103 -58 0
-103 -91 0
-103 33 0
-103 80 0
103 49 34 84 -74 -25 100 58 91 -33 -80 0
-104 83 0
-104 -61 0
-104 -25 0
-104 -2 0
-104 77 0
-104 -45 0
-104 66 0
-104 12 0
-104 -69 0
-104 93 0
104 -83 61 25 2 -77 45 -66 -12 69 -93 0
-105 -60 0
-105 -20 0
-105 41 0
-105 -85 0
-105 -88 0
-105 -29 0
-105 90 0
-105 -93 0
-105 -82 0
-105 -97 0
105 60 20 -41 85 88 29 -90 93 82 97 0
-106 -82 0
-106 -28 0
-106 -51 0
-106 -34 0
-106 -58 0
-106 -96 0
-106 -11 0
-106 63 0
-106 -36 0
-106 47 0
106 82 28 51 34 58 96 11 -63 36 -47 0
-107 60 0
-107 -27 0
-107 10 0
-107 -22 0
-107 28 0
-107 -98 0
-107 -81 0
-107 9 0
-107 -19 0
-107 73 0
107 -60 27 -10 22 -28 98 81 -9 19 -73 0
-108 31 0
-108 85 0
-108 30 0
-108 74 0
-108 64 0
-108 -88 0
-108 -44 0
-108 25 0
-108 68 0
-108 4 0
108 -31 -85 -30 -74 -64 88 44 -25 -68 -4 0
-109 21 0
-109 -60 0
-109 67 0
-109 20 0
-109 5 0
-109 -3 0
-109 -87 0
-109 52 0
-109 9 0
-109 68 0
109 -21 60 -67 -20 -5 3 87 -52 -9 -68 0
-110 21 0
-110 57 0
-110 26 0
-110 -7 0
-110 28 0
-110 -86 0
-110 63 0
-110 11 0
-110 -99 0
-110 56 0
110 -21 -57 -26 7 -28 86 -63 -11 99 -56 0
101 102 103 104 105 106 107 108 109 110 0
-111 -20 0
-111 -74 0
-111 -72 0
-111 -24 0
-111 -83 0
-111 64 0
-111 -3 0
-111 94 0
-111 71 0
-111 -96 0
111 20 74 72 24 83 -64 3 -94 -71 96 0
-112 -49 0
-112 -52 0
-112 -66 0
-112 -93 0
-112 85 0
-112 -39 0
-112 75 0
-112 -51 0
-112 97 0
-112 -73 0
112 49 52 66 93 -85 39 -75 51 -97 73 0
-113 -17 0
-113 65 0
-113 -50 0
-113 -33 0
-113 -13 0
-113 -57 0
-113 64 0
-113 -84 0
-113 -43 0
-113 99 0
113 17 -65 50 33 13 57 -64 84 43 -99 0
-114 64 0
-114 17 0
-114 73 0
-114 89 0
-114 -68 0
-114 -37 0
-114 -93 0
-114 88 0
-114 4 0
-114 -62 0
114 -64 -17 -73 -89 68 37 93 -88 -4 62 0
-115 -39 0
-115 97 0
-115 -81 0
-115 -20 0
-115 -92 0
-115 88 0
-115 36 0
-115 7 0
-115 65 0
-115 -68 0
115 39 -97 81 20 92 -88 -36 -7 -65 68 0
-116 -46 0
-116 2 0
-116 1 0
-116 33 0
-116 -54 0
-116 -95 0
-116 53 0
-116 20 0
-116 -29 0
-116 80 0
116 46 -2 -1 -33 54 95 -53 -20 29 -80 0
-117 11 0
-117 -78 0
-117 -97 0
-117 -34 0
-117 46 0
-117 25 0
-117 -26 0
-117 -29 0
-117 32 0
-117 -16 0
117 -11 78 97 34 -46 -25 26 29 -32 16 0
-118 44 0
-118 74 0
-118 -56 0
-118 -23 0
-118 94 0
-118 43 0
-118 -71 0
-118 -96 0
-118 -100 0
-118 70 0
118 -44 -74 56 23 -94 -43 71 96 100 -70 0
-119 30 0
-119 -95 0
-119 -85 0
-119 14 0
-119 46 0
-119 38 0
-119 65 0
-119 87 0
-119 6 0
-119 5 0
119 -30 95 85 -14 -46 -38 -65 -87 -6 -5 0
-120 -92 0
-120 -38 0
-120 -80 0
-120 75 0
-120 -36 0
-120 99 0
-120 -12 0
-120 54 0
-120 67 0
-120 4 0
120 92 38 80 -75 36 -99 12 -54 -67 -4 0
111 112 113 114 115 116 117 118 119 120 0
-121 -44 0
-121 27 0
-121 97 0
-121 19 0
-121 10 0
-121 -29 0
-121 75 0
-121 17 0
-121 2 0
-121 47 0
121 44 -27 -97 -19 -10 29 -75 -17 -2 -47 0
-122 -72 0
-122 51 0
-122 2 0
-122 66 0
-122 -80 0
-122 57 0
-122 69 0
-122 75 0
-122 -58 0
-122 78 0
122 72 -51 -2 -66 80 -57 -69 -75 58 -78 0
-123 -33 0
-123 -75 0
-123 26 0
-123 -35 0
-123 85 0
-123 15 0
-123 -95 0
-123 52 0
-123 -8 0
-123 96 0
123 33 75 -26 35 -85 -15 95 -52 8 -96 0
-124 -50 0
-124 48 0
-124 -19 0
-124 -83 0
-124 57 0
-124 22 0
-124 30 0
-124 38 0
-124 -88 0
-124 -26 0
124 50 -48 19 83 -57 -22 -30 -38 88 26 0
-125 -79 0
-125 4 0
-125 -42 0
-125 -63 0
-125 -13 0
-125 5 0
-125 53 0
-125 -48 0
-125 -10 0
-125 23 0
125 79 -4 42 63 13 -5 -53 48 10 -23 0
-126 53 0
-126 2 0
-126 -45 0
-126 98 0
-126 72 0
-126 15 0
-126 4 0
-126 61 0
-126 37 0
-126 -34 0
126 -53 -2 45 -98 -72 -15 -4 -61 -37 34 0
-127 51 0
-127 -37 0
-127 16 0
-127 4 0
-127 54 0
-127 -40 0
-127 -75 0
-127 83 0
-127 74 0
-127 -99 0
127 -51 37 -16 -4 -54 40 75 -83 -74 99 0
-128 59 0
-128 34 0
-128 -5 0
-128 27 0
-128 -71 0
-128 3 0
-128 73 0
-128 -77 0
-128 31 0
-128 19 0
128 -59 -34 5 -27 71 -3 -73 77 -31 -19 0
-129 -12 0
-129 -37 0
-129 -94 0
-129 -45 0
-129 -74 0
-129 2 0
-129 85 0
-129 -39 0
-129 -76 0
-129 -40 0
129 12 37 94 45 74 -2 -85 39 76 40 0
-130 -25 0
-130 -62 0
-130 46 0
-130 -32 0
-130 -95 0
-130 50 0
-130 70 0
-130 -55 0
-130 99 0
-130 -47 0
130 25 62 -46 32 95 -50 -70 55 -99 47 0
121 122 123 124 125 126 127 128 129 130 0
-131 -75 0
-131 57 0
-131 -42 0
-131 9 0
-131 -25 0
-131 24 0
-131 97 0
-131 -70 0
-131 -11 0
-131 -83 0
131 75 -57 42 -9 25 -24 -97 70 11 83 0
-132 -8 0
-132 43 0
-132 -65 0
-132 61 0
-132 -18 0
-132 -15 0
-132 -53 0
-132 84 0
-132 -92 0
-132 54 0
132 8 -43 65 -61 18 15 53 -84 92 -54 0
-133 -19 0
-133 -29 0
-133 87 0
-133 -62 0
-133 70 0
-133 -1 0
-133 32 0
-133 17 0
-133 -37 0
-133 21 0
133 19 29 -87 62 -70 1 -32 -17 37 -21 0
-134 50 0
-134 20 0
-134 -3 0
-134 -22 0
-134 30 0
-134 67 0
-134 17 0
-134 -58 0
-134 94 0
-134 -70 0
134 -50 -20 3 22 -30 -67 -17 58 -94 70 0
-135 88 0
-135 93 0
-135 22 0
-135 -100 0
-135 72 0
-135 -7 0
-135 -58 0
-135 -44 0
-135 57 0
-135 40 0
135 -88 -93 -22 100 -72 7 58 44 -57 -40 0
-136 49 0
-136 55 0
-136 -85 0
-136 31 0
-136 -75 0
-136 39 0
-136 -95 0
-136 -9 0
-136 79 0
-136 74 0
136 -49 -55 85 -31 75 -39 95 9 -79 -74 0
-137 -1 0
-137 -40 0
-137 29 0
-137 -7 0
-137 55 0
-137 85 0
-137 -45 0
-137 71 0
-137 -94 0
-137 16 0
137 1 40 -29 7 -55 -85 45 -71 94 -16 0
-138 77 0
-138 16 0
-138 -93 0
-138 79 0
-138 -3 0
-138 14 0
-138 66 0
-138 -55 0
-138 76 0
-138 -24 0
138 -77 -16 93 -79 3 -14 -66 55 -76 24 0
-139 -61 0
-139 97 0
-139 -49 0
-139 3 0
-139 83 0
-139 45 0
-139 -5 0
-139 -79 0
-139 56 0
-139 78 0
139 61 -97 49 -3 -83 -45 5 79 -56 -78 0
-140 68 0
-140 23 0
-140 -10 0
-140 72 0
-140 -18 0
-140 -44 0
-140 -95 0
-140 8 0
-140 86 0
-140 30 0
140 -68 -23 10 -72 18 44 95 -8 -86 -30 0
131 132 133 134 135 136 137 138 139 140 0
-141 -6 0
-141 22 0
-141 -38 0
-141 43 0
-141 -59 0
-141 16 0
-141 -100 0
-141 -75 0
-141 79 0
-141 70 0
141 6 -22 38 -43 59 -16 100 75 -79 -70 0
-142 6 0
-142 1 0
-142 13 0
-142 100 0
-142 24 0
-142 -55 0
-142 -14 0
-142 -9 0
-142 30 0
-142 -47 0
142 -6 -1 -13 -100 -24 55 14 9 -30 47 0
-143 -27 0
-143 -18 0
-143 -67 0
-143 84 0
-143 -69 0
-143 45 0
-143 -39 0
-143 -19 0
-143 91 0
-143 23 0
143 27 18 67 -84 69 -45 39 19 -91 -23 0
-144 86 0
-144 71 0
-144 -4 0
-144 -27 0
-144 -3 0
-144 89 0
-144 45 0
-144 6 0
-144 21 0
-144 11 0
144 -86 -71 4 27 3 -89 -45 -6 -21 -11 0
-145 94 0
-145 -21 0
-145 -37 0
-145 88 0
-145 38 0
-145 76 0
-145 25 0
-145 90 0
-145 -30 0
-145 -79 0
145 -94 21 37 -88 -38 -76 -25 -90 30 79 0
-146 9 0
-146 -15 0
-146 -30 0
-146 43 0
-146 -10 0
-146 12 0
-146 -27 0
-146 24 0
-146 -21 0
-146 64 0
146 -9 15 30 -43 10 -12 27 -24 21 -64 0
-147 -25 0
-147 69 0
-147 -8 0
-147 -54 0
-147 -45 0
-147 -30 0
-147 53 0
-147 85 0
-147 -88 0
-147 -93 0
147 25 -69 8 54 45 30 -53 -85 88 93 0
-148 81 0
-148 -75 0
-148 -46 0
-148 77 0
-148 26 0
-148 -7 0
-148 -48 0
-148 2 0
-148 76 0
-148 73 0
148 -81 75 46 -77 -26 7 48 -2 -76 -73 0
-149 -18 0
-149 54 0
-149 83 0
-149 -33 0
-149 20 0
-149 -96 0
-149 79 0
-149 -15 0
-149 61 0
-149 69 0
149 18 -54 -83 33 -20 96 -79 15 -61 -69 0
-150 -22 0
-150 32 0
-150 26 0
-150 -69 0
-150 41 0
-150 19 0
-150 -3 0
-150 46 0
-150 -86 0
-150 -13 0
150 22 -32 -26 69 -41 -19 3 -46 86 13 0
141 142 143 144 145 146 147 148 149 150 0
-151 -6 0
-151 -32 0
-151 61 0
-151 95 0
-151 -72 0
-151 -11 0
-151 -41 0
-151 58 0
-151 -68 0
-151 -64 0
151 6 32 -61 -95 72 11 41 -58 68 64 0
-152 71 0
-152 15 0
-152 39 0
-152 88 0
-152 -27 0
-152 -3 0
-152 53 0
-152 -96 0
-152 19 0
-152 -18 0
152 -71 -15 -39 -88 27 3 -53 96 -19 18 0
-153 -40 0
-153 -91 0
-153 53 0
-153 73 0
-153 12 0
-153 -6 0
-153 -38 0
-153 90 0
-153 41 0
-153 -26 0
153 40 91 -53 -73 -12 6 38 -90 -41 26 0
-154 32 0
-154 59 0
-154 -55 0
-154 -78 0
-154 -7 0
-154 39 0
-154 -76 0
-154 88 0
-154 -64 0
-154 94 0
154 -32 -59 55 78 7 -39 76 -88 64 -94 0
-155 48 0
-155 -12 0
-155 45 0
-155 -85 0
-155 -59 0
-155 36 0
-155 -26 0
-155 7 0
-155 -82 0
-155 29 0
155 -48 12 -45 85 59 -36 26 -7 82 -29 0
-156 -47 0
-156 -85 0
-156 63 0
-156 -96 0
-156 -22 0
-156 -39 0
-156 -76 0
-156 -81 0
-156 25 0
-156 91 0
156 47 85 -63 96 22 39 76 81 -25 -91 0
-157 -83 0
-157 99 0
-157 -78 0
-157 65 0
-157 -48 0
-157 -41 0
-157 -100 0
-157 -73 0
-157 -64 0
-157 -30 0
157 83 -99 78 -65 48 41 100 73 64 30 0
-158 -44 0
-158 46 0
-158 60 0
-158 -29 0
-158 -54 0
-158 14 0
-158 11 0
-158 -6 0
-158 -31 0
-158 -43 0
158 44 -46 -60 29 54 -14 -11 6 31 43 0
-159 47 0
-159 -6 0
-159 -9 0
-159 -79 0
-159 89 0
-159 22 0
-159 -54 0
-159 -76 0
-159 16 0
-159 17 0
159 -47 6 9 79 -89 -22 54 76 -16 -17 0
-160 -15 0
-160 -4 0
-160 -9 0
-160 -45 0
-160 -42 0
-160 -17 0
-160 41 0
-160 -37 0
-160 -40 0
-160 -70 0
160 15 4 9 45 42 17 -41 37 40 70 0
151 152 153 154 155 156 157 158 159 160 0
-161 -61 0
-161 -87 0
-161 93 0
-161 29 0
-161 70 0
-161 14 0
-161 -48 0
-161 -22 0
-161 15 0
-161 51 0
161 61 87 -93 -29 -70 -14 48 22 -15 -51 0
-162 57 0
-162 46 0
-162 37 0
-162 -68 0
-162 -42 0
-162 30 0
-162 -48 0
-162 79 0
-162 44 0
-162 -40 0
162 -57 -46 -37 68 42 -30 48 -79 -44 40 0
-163 66 0
-163 -48 0
-163 40 0
-163 -91 0
-163 82 0
-163 53 0
-163 80 0
-163 72 0
-163 37 0
-163 71 0
163 -66 48 -40 91 -82 -53 -80 -72 -37 -71 0
-164 -58 0
-164 -35 0
-164 -84 0
-164 -76 0
-164 52 0
-164 19 0
-164 79 0
-164 -54 0
-164 30 0
-164 -97 0
164 58 35 84 76 -52 -19 -79 54 -30 97 0
-165 -60 0
-165 22 0
-165 -79 0
-165 62 0
-165 45 0
-165 -13 0
-165 91 0
-165 75 0
-165 89 0
-165 29 0
165 60 -22 79 -62 -45 13 -91 -75 -89 -29 0
-166 61 0
-166 -67 0
-166 -99 0
-166 -6 0
-166 -74 0
-166 -77 0
-166 -85 0
-166 88 0
-166 -32 0
-166 66 0
166 -61 67 99 6 74 77 85 -88 32 -66 0
-167 53 0
-167 -91 0
-167 48 0
-167 32 0
-167 -71 0
-167 94 0
-167 60 0
-167 49 0
-167 -21 0
-167 -46 0
167 -53 91 -48 -32 71 -94 -60 -49 21 46 0
-168 -61 0
-168 43 0
-168 -81 0
-168 -57 0
-168 86 0
-168 1 0
-168 -90 0
-168 -28 0
-168 14 0
-168 -16 0
168 61 -43 81 57 -86 -1 90 28 -14 16 0
-169 -98 0
-169 47 0
-169 -41 0
-169 18 0
-169 9 0
-169 -53 0
-169 43 0
-169 -27 0
-169 -64 0
-169 -4 0
169 98 -47 41 -18 -9 53 -43 27 64 4 0
-170 7 0
-170 22 0
-170 46 0
-170 -57 0
-170 32 0
-170 -56 0
-170 -42 0
-170 -85 0
-170 -15 0
-170 -13 0
170 -7 -22 -46 57 -32 56 42 85 15 13 0
161 162 163 164 165 166 167 168 169 170 0
-171 39 0
-171 92 0
-171 -79 0
-171 48 0
-171 -34 0
-171 46 0
-171 63 0
-171 19 0
-171 -42 0
-171 -28 0
171 -39 -92 79 -48 34 -46 -63 -19 42 28 0
-172 15 0
-172 48 0
-172 79 0
-172 11 0
-172 -3 0
-172 12 0
-172 98 0
-172 89 0
-172 -66 0
-172 55 0
172 -15 -48 -79 -11 3 -12 -98 -89 66 -55 0
-173 -19 0
-173 98 0
-173 23 0
-173 62 0
-173 -55 0
-173 -11 0
-173 -31 0
-173 92 0
-173 93 0
-173 74 0
173 19 -98 -23 -62 55 11 31 -92 -93 -74 0
-174 -20 0
-174 13 0
-174 56 0
-174 -71 0
-174 -7 0
-174 -36 0
-174 23 0
-174 -96 0
-174 -38 0
-174 -12 0
174 20 -13 -56 71 7 36 -23 96 38 12 0
-175 95 0
-175 -25 0
-175 31 0
-175 83 0
-175 44 0
-175 -80 0
-175 35 0
-175 38 0
-175 40 0
-175 -82 0
175 -95 25 -31 -83 -44 80 -35 -38 -40 82 0
-176 19 0
-176 -71 0
-176 46 0
-176 20 0
-176 -37 0
-176 -77 0
-176 32 0
-176 63 0
-176 -43 0
-176 -82 0
176 -19 71 -46 -20 37 77 -32 -63 43 82 0
-177 88 0
-177 -27 0
-177 79 0
-177 91 0
-177 78 0
-177 71 0
-177 49 0
-177 84 0
-177 -32 0
-177 66 0
177 -88 27 -79 -91 -78 -71 -49 -84 32 -66 0
-178 -96 0
-178 33 0
-178 28 0
-178 76 0
-178 4 0
-178 -17 0
-178 -13 0
-178 -86 0
-178 -29 0
-178 -6 0
178 96 -33 -28 -76 -4 17 13 86 29 6 0
-179 10 0
-179 1 0
-179 -66 0
-179 50 0
-179 73 0
-179 -23 0
-179 46 0
-179 35 0
-179 17 0
-179 -80 0
179 -10 -1 66 -50 -73 23 -46 -35 -17 80 0
-180 -26 0
-180 -80 0
-180 23 0
-180 58 0
-180 84 0
-180 -93 0
-180 -16 0
-180 28 0
-180 -53 0
-180 -50 0
180 26 80 -23 -58 -84 93 16 -28 53 50 0
171 172 173 174 175 176 177 178 179 180 0
-181 -87 0
-181 -3 0
-181 -1 0
-181 74 0
-181 34 0
-181 -71 0
-181 54 0
-181 -88 0
-181 -5 0
-181 -33 0
181 87 3 1 -74 -34 71 -54 88 5 33 0
-182 64 0
-182 84 0
-182 69 0
-182 -16 0
-182 1 0
-182 34 0
-182 8 0
-182 -48 0
-182 -30 0
-182 -23 0
182 -64 -84 -69 16 -1 -34 -8 48 30 23 0
-183 -5 0
-183 -52 0
-183 18 0
-183 38 0
-183 73 0
-183 47 0
-183 -81 0
-183 55 0
-183 -84 0
-183 100 0
183 5 52 -18 -38 -73 -47 81 -55 84 -100 0
-184 -94 0
-184 8 0
-184 68 0
-184 41 0
-184 -93 0
-184 -47 0
-184 -69 0
-184 -46 0
-184 24 0
-184 65 0
184 94 -8 -68 -41 93 47 69 46 -24 -65 0
-185 -2 0
-185 -10 0
-185 73 0
-185 -97 0
-185 -74 0
-185 57 0
-185 26 0
-185 -29 0
-185 96 0
-185 76 0
185 2 10 -73 97 74 -57 -26 29 -96 -76 0
-186 -8 0
-186 -23 0
-186 -82 0
-186 -92 0
-186 -60 0
-186 -12 0
-186 -58 0
-186 -7 0
-186 48 0
-186 16 0
186 8 23 82 92 60 12 58 7 -48 -16 0
-187 59 0
-187 -73 0
-187 -26 0
-187 60 0
-187 -53 0
-187 -35 0
-187 -43 0
-187 58 0
-187 68 0
-187 -79 0
187 -59 73 26 -60 53 35 43 -58 -68 79 0
-188 17 0
-188 -88 0
-188 20 0
-188 -61 0
-188 -65 0
-188 77 0
-188 4 0
-188 -75 0
-188 -26 0
-188 -66 0
188 -17 88 -20 61 65 -77 -4 75 26 66 0
-189 17 0
-189 97 0
-189 51 0
-189 -82 0
-189 43 0
-189 -77 0
-189 -88 0
-189 -93 0
-189 -80 0
-189 21 0
189 -17 -97 -51 82 -43 77 88 93 80 -21 0
-190 -77 0
-190 -32 0
-190 99 0
-190 63 0
-190 45 0
-190 -91 0
-190 -58 0
-190 -87 0
-190 -4 0
-190 5 0
190 77 32 -99 -63 -45 91 58 87 4 -5 0
181 182 183 184 185 186 187 188 189 190 0
-191 -16 0
-191 -33 0
-191 -55 0
-191 64 0
-191 -29 0
-191 -89 0
-191 -59 0
-191 51 0
-191 -22 0
-191 -15 0
191 16 33 55 -64 29 89 59 -51 22 15 0
-192 -7 0
-192 -34 0
-192 -62 0
-192 83 0
-192 -86 0
-192 -79 0
-192 -78 0
-192 66 0
-192 -88 0
-192 -8 0
192 7 34 62 -83 86 79 78 -66 88 8 0
-193 -43 0
-193 21 0
-193 -76 0
-193 96 0
-193 57 0
-193 58 0
-193 -29 0
-193 -31 0
-193 97 0
-193 38 0
193 43 -21 76 -96 -57 -58 29 31 -97 -38 0
-194 5 0
-194 53 0
-194 11 0
-194 57 0
-194 4 0
-194 -23 0
-194 -72 0
-194 65 0
-194 21 0
-194 84 0
194 -5 -53 -11 -57 -4 23 72 -65 -21 -84 0
-195 -73 0
-195 10 0
-195 -17 0
-195 -29 0
-195 82 0
-195 98 0
-195 -57 0
-195 33 0
-195 -35 0
-195 58 0
195 73 -10 17 29 -82 -98 57 -33 35 -58 0
-196 -44 0
-196 -13 0
-196 98 0
-196 51 0
-196 6 0
-196 -96 0
-196 94 0
-196 46 0
-196 -74 0
-196 56 0
196 44 13 -98 -51 -6 96 -94 -46 74 -56 0
-197 -37 0
-197 -44 0
-197 -85 0
-197 79 0
-197 -11 0
-197 49 0
-197 4 0
-197 -58 0
-197 -71 0
-197 -89 0
197 37 44 85 -79 11 -49 -4 58 71 89 0
-198 -64 0
-198 8 0
-198 -84 0
-198 46 0
-198 29 0
-198 27 0
-198 -58 0
-198 -83 0
-198 -98 0
-198 -30 0
198 64 -8 84 -46 -29 -27 58 83 98 30 0
-199 41 0
-199 -63 0
-199 91 0
-199 -85 0
-199 53 0
-199 6 0
-199 83 0
-199 -52 0
-199 12 0
-199 82 0
199 -41 63 -91 85 -53 -6 -83 52 -12 -82 0
-200 -25 0
-200 4 0
-200 -89 0
-200 95 0
-200 31 0
-200 -79 0
-200 82 0
-200 43 0
-200 -53 0
-200 11 0
200 25 -4 89 -95 -31 79 -82 -43 53 -11 0
191 192 193 194 195 196 197 198 199 200 0
